c strEdges: 125  randomEdges: 504 
c degrees:  1  2 
c girth: Inf max: -43.604516  
c Hgirth mixed MAXCUT instance
c generated from an undirected graph
c to solve unweighted MaxCut
p cnf 140 1258
41 81 0
-41 -81 0
41 8 0
-41 -8 0
88 83 0
-88 -83 0
19 20 0
-19 -20 0
19 111 0
-19 -111 0
92 23 0
-92 -23 0
115 123 0
-115 -123 0
115 25 0
-115 -25 0
105 10 0
-105 -10 0
105 140 0
-105 -140 0
2 117 0
-2 -117 0
2 81 0
-2 -81 0
24 74 0
-24 -74 0
24 51 0
-24 -51 0
63 8 0
-63 -8 0
63 131 0
-63 -131 0
36 127 0
-36 -127 0
100 26 0
-100 -26 0
107 34 0
-107 -34 0
52 51 0
-52 -51 0
52 15 0
-52 -15 0
50 53 0
-50 -53 0
50 96 0
-50 -96 0
9 80 0
-9 -80 0
66 134 0
-66 -134 0
66 33 0
-66 -33 0
82 103 0
-82 -103 0
82 32 0
-82 -32 0
137 58 0
-137 -58 0
137 49 0
-137 -49 0
35 118 0
-35 -118 0
42 37 0
-42 -37 0
42 122 0
-42 -122 0
110 27 0
-110 -27 0
110 135 0
-110 -135 0
59 47 0
-59 -47 0
4 55 0
-4 -55 0
4 75 0
-4 -75 0
109 33 0
-109 -33 0
109 47 0
-109 -47 0
72 76 0
-72 -76 0
72 134 0
-72 -134 0
116 30 0
-116 -30 0
116 13 0
-116 -13 0
77 98 0
-77 -98 0
77 91 0
-77 -91 0
46 136 0
-46 -136 0
106 16 0
-106 -16 0
106 118 0
-106 -118 0
119 5 0
-119 -5 0
119 127 0
-119 -127 0
133 25 0
-133 -25 0
133 83 0
-133 -83 0
54 130 0
-54 -130 0
61 129 0
-61 -129 0
61 128 0
-61 -128 0
95 1 0
-95 -1 0
95 20 0
-95 -20 0
64 111 0
-64 -111 0
64 55 0
-64 -55 0
17 49 0
-17 -49 0
17 104 0
-17 -104 0
60 71 0
-60 -71 0
60 23 0
-60 -23 0
102 131 0
-102 -131 0
112 93 0
-112 -93 0
112 11 0
-112 -11 0
40 22 0
-40 -22 0
40 16 0
-40 -16 0
43 122 0
-43 -122 0
43 68 0
-43 -68 0
67 135 0
-67 -135 0
67 26 0
-67 -26 0
99 140 0
-99 -140 0
57 45 0
-57 -45 0
57 28 0
-57 -28 0
44 11 0
-44 -11 0
44 31 0
-44 -31 0
14 68 0
-14 -68 0
14 86 0
-14 -86 0
90 28 0
-90 -28 0
90 74 0
-90 -74 0
84 12 0
-84 -12 0
84 53 0
-84 -53 0
65 132 0
-65 -132 0
65 89 0
-65 -89 0
108 86 0
-108 -86 0
108 27 0
-108 -27 0
79 15 0
-79 -15 0
79 130 0
-79 -130 0
85 104 0
-85 -104 0
85 136 0
-85 -136 0
69 31 0
-69 -31 0
69 37 0
-69 -37 0
121 101 0
-121 -101 0
121 5 0
-121 -5 0
29 38 0
-29 -38 0
29 101 0
-29 -101 0
39 78 0
-39 -78 0
39 1 0
-39 -1 0
6 21 0
-6 -21 0
6 113 0
-6 -113 0
139 32 0
-139 -32 0
139 30 0
-139 -30 0
73 113 0
-73 -113 0
124 114 0
-124 -114 0
124 76 0
-124 -76 0
48 56 0
-48 -56 0
94 91 0
-94 -91 0
94 123 0
-94 -123 0
7 13 0
-7 -13 0
18 87 0
-18 -87 0
18 138 0
-18 -138 0
125 128 0
-125 -128 0
125 93 0
-125 -93 0
120 96 0
-120 -96 0
120 58 0
-120 -58 0
97 89 0
-97 -89 0
97 114 0
-97 -114 0
70 138 0
-70 -138 0
70 21 0
-70 -21 0
3 75 0
-3 -75 0
3 80 0
-3 -80 0
62 126 0
-62 -126 0
62 103 0
-62 -103 0
99 128 0
-99 -128 0
136 12 0
-136 -12 0
76 31 0
-76 -31 0
137 40 0
-137 -40 0
24 120 0
-24 -120 0
77 71 0
-77 -71 0
4 39 0
-4 -39 0
97 86 0
-97 -86 0
125 96 0
-125 -96 0
71 38 0
-71 -38 0
79 121 0
-79 -121 0
121 86 0
-121 -86 0
49 104 0
-49 -104 0
106 5 0
-106 -5 0
44 129 0
-44 -129 0
98 104 0
-98 -104 0
6 89 0
-6 -89 0
54 58 0
-54 -58 0
99 120 0
-99 -120 0
50 74 0
-50 -74 0
1 122 0
-1 -122 0
63 140 0
-63 -140 0
36 87 0
-36 -87 0
54 64 0
-54 -64 0
133 126 0
-133 -126 0
94 22 0
-94 -22 0
99 83 0
-99 -83 0
4 3 0
-4 -3 0
66 46 0
-66 -46 0
48 8 0
-48 -8 0
57 129 0
-57 -129 0
72 65 0
-72 -65 0
23 51 0
-23 -51 0
4 26 0
-4 -26 0
121 1 0
-121 -1 0
2 50 0
-2 -50 0
111 28 0
-111 -28 0
92 102 0
-92 -102 0
100 134 0
-100 -134 0
85 132 0
-85 -132 0
120 31 0
-120 -31 0
16 111 0
-16 -111 0
122 126 0
-122 -126 0
17 60 0
-17 -60 0
41 92 0
-41 -92 0
39 87 0
-39 -87 0
88 44 0
-88 -44 0
91 75 0
-91 -75 0
42 102 0
-42 -102 0
20 5 0
-20 -5 0
67 138 0
-67 -138 0
116 64 0
-116 -64 0
50 87 0
-50 -87 0
46 93 0
-46 -93 0
90 73 0
-90 -73 0
8 55 0
-8 -55 0
120 128 0
-120 -128 0
112 22 0
-112 -22 0
67 29 0
-67 -29 0
6 31 0
-6 -31 0
59 139 0
-59 -139 0
49 38 0
-49 -38 0
121 91 0
-121 -91 0
5 122 0
-5 -122 0
4 108 0
-4 -108 0
81 89 0
-81 -89 0
7 32 0
-7 -32 0
81 130 0
-81 -130 0
20 101 0
-20 -101 0
112 51 0
-112 -51 0
35 15 0
-35 -15 0
44 132 0
-44 -132 0
3 10 0
-3 -10 0
67 78 0
-67 -78 0
81 103 0
-81 -103 0
118 111 0
-118 -111 0
51 30 0
-51 -30 0
73 140 0
-73 -140 0
35 84 0
-35 -84 0
10 117 0
-10 -117 0
29 125 0
-29 -125 0
115 34 0
-115 -34 0
48 123 0
-48 -123 0
69 55 0
-69 -55 0
108 73 0
-108 -73 0
82 132 0
-82 -132 0
65 53 0
-65 -53 0
40 11 0
-40 -11 0
97 13 0
-97 -13 0
108 55 0
-108 -55 0
50 7 0
-50 -7 0
59 87 0
-59 -87 0
124 11 0
-124 -11 0
36 81 0
-36 -81 0
118 37 0
-118 -37 0
67 28 0
-67 -28 0
130 28 0
-130 -28 0
98 135 0
-98 -135 0
79 104 0
-79 -104 0
137 62 0
-137 -62 0
55 49 0
-55 -49 0
79 45 0
-79 -45 0
27 22 0
-27 -22 0
35 90 0
-35 -90 0
112 45 0
-112 -45 0
73 93 0
-73 -93 0
36 138 0
-36 -138 0
66 85 0
-66 -85 0
97 81 0
-97 -81 0
6 37 0
-6 -37 0
59 61 0
-59 -61 0
7 37 0
-7 -37 0
46 97 0
-46 -97 0
105 13 0
-105 -13 0
106 32 0
-106 -32 0
136 93 0
-136 -93 0
85 11 0
-85 -11 0
133 30 0
-133 -30 0
105 44 0
-105 -44 0
23 86 0
-23 -86 0
72 44 0
-72 -44 0
24 76 0
-24 -76 0
82 140 0
-82 -140 0
3 128 0
-3 -128 0
109 68 0
-109 -68 0
115 11 0
-115 -11 0
115 45 0
-115 -45 0
42 75 0
-42 -75 0
133 26 0
-133 -26 0
94 93 0
-94 -93 0
76 16 0
-76 -16 0
27 89 0
-27 -89 0
2 116 0
-2 -116 0
59 131 0
-59 -131 0
70 33 0
-70 -33 0
135 21 0
-135 -21 0
67 96 0
-67 -96 0
124 129 0
-124 -129 0
73 12 0
-73 -12 0
92 125 0
-92 -125 0
74 91 0
-74 -91 0
66 60 0
-66 -60 0
65 121 0
-65 -121 0
117 32 0
-117 -32 0
50 42 0
-50 -42 0
36 137 0
-36 -137 0
2 37 0
-2 -37 0
67 113 0
-67 -113 0
133 104 0
-133 -104 0
72 16 0
-72 -16 0
50 49 0
-50 -49 0
64 11 0
-64 -11 0
33 11 0
-33 -11 0
105 67 0
-105 -67 0
64 57 0
-64 -57 0
125 132 0
-125 -132 0
125 89 0
-125 -89 0
112 136 0
-112 -136 0
139 15 0
-139 -15 0
103 49 0
-103 -49 0
99 123 0
-99 -123 0
130 45 0
-130 -45 0
61 31 0
-61 -31 0
112 53 0
-112 -53 0
12 56 0
-12 -56 0
123 138 0
-123 -138 0
133 76 0
-133 -76 0
82 98 0
-82 -98 0
67 126 0
-67 -126 0
118 15 0
-118 -15 0
70 30 0
-70 -30 0
115 59 0
-115 -59 0
17 1 0
-17 -1 0
74 114 0
-74 -114 0
20 114 0
-20 -114 0
65 8 0
-65 -8 0
103 13 0
-103 -13 0
58 135 0
-58 -135 0
48 68 0
-48 -68 0
23 78 0
-23 -78 0
99 22 0
-99 -22 0
81 21 0
-81 -21 0
77 67 0
-77 -67 0
137 46 0
-137 -46 0
69 139 0
-69 -139 0
45 31 0
-45 -31 0
4 60 0
-4 -60 0
37 135 0
-37 -135 0
137 91 0
-137 -91 0
67 114 0
-67 -114 0
59 33 0
-59 -33 0
109 134 0
-109 -134 0
67 125 0
-67 -125 0
82 68 0
-82 -68 0
6 123 0
-6 -123 0
28 13 0
-28 -13 0
57 97 0
-57 -97 0
77 44 0
-77 -44 0
137 47 0
-137 -47 0
82 102 0
-82 -102 0
115 81 0
-115 -81 0
103 128 0
-103 -128 0
37 136 0
-37 -136 0
51 25 0
-51 -25 0
57 85 0
-57 -85 0
43 136 0
-43 -136 0
60 104 0
-60 -104 0
44 38 0
-44 -38 0
53 30 0
-53 -30 0
99 125 0
-99 -125 0
41 42 0
-41 -42 0
95 78 0
-95 -78 0
54 131 0
-54 -131 0
39 103 0
-39 -103 0
74 104 0
-74 -104 0
84 15 0
-84 -15 0
99 91 0
-99 -91 0
80 55 0
-80 -55 0
48 62 0
-48 -62 0
135 101 0
-135 -101 0
85 73 0
-85 -73 0
19 89 0
-19 -89 0
42 7 0
-42 -7 0
118 25 0
-118 -25 0
9 112 0
-9 -112 0
16 93 0
-16 -93 0
40 29 0
-40 -29 0
24 90 0
-24 -90 0
46 126 0
-46 -126 0
64 12 0
-64 -12 0
125 30 0
-125 -30 0
35 12 0
-35 -12 0
127 33 0
-127 -33 0
69 1 0
-69 -1 0
73 11 0
-73 -11 0
18 96 0
-18 -96 0
107 20 0
-107 -20 0
9 34 0
-9 -34 0
95 68 0
-95 -68 0
124 127 0
-124 -127 0
101 91 0
-101 -91 0
121 123 0
-121 -123 0
63 62 0
-63 -62 0
81 74 0
-81 -74 0
131 56 0
-131 -56 0
139 114 0
-139 -114 0
35 127 0
-35 -127 0
93 87 0
-93 -87 0
137 28 0
-137 -28 0
121 97 0
-121 -97 0
21 128 0
-21 -128 0
124 134 0
-124 -134 0
4 130 0
-4 -130 0
62 128 0
-62 -128 0
72 53 0
-72 -53 0
63 81 0
-63 -81 0
7 5 0
-7 -5 0
79 127 0
-79 -127 0
137 79 0
-137 -79 0
73 8 0
-73 -8 0
82 87 0
-82 -87 0
84 132 0
-84 -132 0
61 20 0
-61 -20 0
36 140 0
-36 -140 0
77 123 0
-77 -123 0
95 108 0
-95 -108 0
17 79 0
-17 -79 0
101 78 0
-101 -78 0
121 11 0
-121 -11 0
137 111 0
-137 -111 0
60 76 0
-60 -76 0
2 99 0
-2 -99 0
24 91 0
-24 -91 0
100 61 0
-100 -61 0
65 101 0
-65 -101 0
123 128 0
-123 -128 0
46 27 0
-46 -27 0
110 84 0
-110 -84 0
100 31 0
-100 -31 0
95 14 0
-95 -14 0
83 5 0
-83 -5 0
61 32 0
-61 -32 0
59 28 0
-59 -28 0
26 21 0
-26 -21 0
74 103 0
-74 -103 0
101 138 0
-101 -138 0
46 74 0
-46 -74 0
122 138 0
-122 -138 0
41 110 0
-41 -110 0
118 12 0
-118 -12 0
110 101 0
-110 -101 0
52 121 0
-52 -121 0
9 109 0
-9 -109 0
94 132 0
-94 -132 0
48 10 0
-48 -10 0
106 83 0
-106 -83 0
115 125 0
-115 -125 0
35 99 0
-35 -99 0
85 113 0
-85 -113 0
9 61 0
-9 -61 0
124 10 0
-124 -10 0
40 134 0
-40 -134 0
102 13 0
-102 -13 0
10 74 0
-10 -74 0
105 69 0
-105 -69 0
100 65 0
-100 -65 0
130 56 0
-130 -56 0
36 139 0
-36 -139 0
34 56 0
-34 -56 0
5 132 0
-5 -132 0
92 40 0
-92 -40 0
33 114 0
-33 -114 0
57 113 0
-57 -113 0
86 32 0
-86 -32 0
80 135 0
-80 -135 0
20 103 0
-20 -103 0
6 135 0
-6 -135 0
100 89 0
-100 -89 0
112 132 0
-112 -132 0
24 97 0
-24 -97 0
90 84 0
-90 -84 0
43 111 0
-43 -111 0
4 13 0
-4 -13 0
80 104 0
-80 -104 0
136 91 0
-136 -91 0
72 32 0
-72 -32 0
40 75 0
-40 -75 0
27 47 0
-27 -47 0
106 75 0
-106 -75 0
14 65 0
-14 -65 0
67 71 0
-67 -71 0
55 131 0
-55 -131 0
9 30 0
-9 -30 0
54 47 0
-54 -47 0
27 131 0
-27 -131 0
66 91 0
-66 -91 0
28 132 0
-28 -132 0
116 22 0
-116 -22 0
27 32 0
-27 -32 0
65 20 0
-65 -20 0
139 93 0
-139 -93 0
54 38 0
-54 -38 0
54 96 0
-54 -96 0
60 111 0
-60 -111 0
18 111 0
-18 -111 0
64 30 0
-64 -30 0
68 113 0
-68 -113 0
85 58 0
-85 -58 0
82 119 0
-82 -119 0
50 45 0
-50 -45 0
39 6 0
-39 -6 0
53 78 0
-53 -78 0
129 38 0
-129 -38 0
52 1 0
-52 -1 0
64 32 0
-64 -32 0
35 96 0
-35 -96 0
35 40 0
-35 -40 0
92 124 0
-92 -124 0
50 33 0
-50 -33 0
41 60 0
-41 -60 0
127 30 0
-127 -30 0
137 5 0
-137 -5 0
121 16 0
-121 -16 0
98 138 0
-98 -138 0
2 95 0
-2 -95 0
10 127 0
-10 -127 0
108 1 0
-108 -1 0
52 66 0
-52 -66 0
48 32 0
-48 -32 0
43 81 0
-43 -81 0
52 45 0
-52 -45 0
66 34 0
-66 -34 0
10 21 0
-10 -21 0
2 87 0
-2 -87 0
36 116 0
-36 -116 0
107 138 0
-107 -138 0
112 62 0
-112 -62 0
41 90 0
-41 -90 0
95 132 0
-95 -132 0
112 98 0
-112 -98 0
66 99 0
-66 -99 0
112 57 0
-112 -57 0
118 130 0
-118 -130 0
54 6 0
-54 -6 0
73 38 0
-73 -38 0
120 81 0
-120 -81 0
69 16 0
-69 -16 0
3 22 0
-3 -22 0
77 132 0
-77 -132 0
133 89 0
-133 -89 0
59 11 0
-59 -11 0
69 138 0
-69 -138 0
119 85 0
-119 -85 0
105 1 0
-105 -1 0
82 138 0
-82 -138 0
23 96 0
-23 -96 0
83 78 0
-83 -78 0
9 90 0
-9 -90 0
26 131 0
-26 -131 0
100 33 0
-100 -33 0
23 76 0
-23 -76 0
133 47 0
-133 -47 0
100 136 0
-100 -136 0
121 28 0
-121 -28 0
115 48 0
-115 -48 0
47 130 0
-47 -130 0
34 27 0
-34 -27 0
67 121 0
-67 -121 0
50 77 0
-50 -77 0
43 101 0
-43 -101 0
94 89 0
-94 -89 0
137 27 0
-137 -27 0
23 114 0
-23 -114 0
99 51 0
-99 -51 0
107 106 0
-107 -106 0
46 140 0
-46 -140 0
111 22 0
-111 -22 0
4 79 0
-4 -79 0
99 130 0
-99 -130 0
137 102 0
-137 -102 0
39 113 0
-39 -113 0
52 102 0
-52 -102 0
83 34 0
-83 -34 0
55 71 0
-55 -71 0
43 93 0
-43 -93 0
125 22 0
-125 -22 0
105 108 0
-105 -108 0
107 119 0
-107 -119 0
137 68 0
-137 -68 0
74 47 0
-74 -47 0
66 80 0
-66 -80 0
77 16 0
-77 -16 0
5 96 0
-5 -96 0
107 137 0
-107 -137 0
88 125 0
-88 -125 0
103 27 0
-103 -27 0
88 133 0
-88 -133 0
60 136 0
-60 -136 0
14 71 0
-14 -71 0
123 75 0
-123 -75 0
92 99 0
-92 -99 0
23 71 0
-23 -71 0
74 33 0
-74 -33 0
38 13 0
-38 -13 0
119 18 0
-119 -18 0
57 49 0
-57 -49 0
5 32 0
-5 -32 0
69 86 0
-69 -86 0
9 122 0
-9 -122 0
63 10 0
-63 -10 0
100 97 0
-100 -97 0
51 15 0
-51 -15 0
116 124 0
-116 -124 0
60 140 0
-60 -140 0
72 83 0
-72 -83 0
88 20 0
-88 -20 0
14 125 0
-14 -125 0
136 71 0
-136 -71 0
127 1 0
-127 -1 0
72 135 0
-72 -135 0
137 16 0
-137 -16 0
29 5 0
-29 -5 0
102 70 0
-102 -70 0
35 58 0
-35 -58 0
69 101 0
-69 -101 0
118 13 0
-118 -13 0
61 113 0
-61 -113 0
137 8 0
-137 -8 0
17 69 0
-17 -69 0
16 56 0
-16 -56 0
53 71 0
-53 -71 0
80 136 0
-80 -136 0
61 132 0
-61 -132 0
81 32 0
-81 -32 0
107 130 0
-107 -130 0
119 93 0
-119 -93 0
129 138 0
-129 -138 0
20 78 0
-20 -78 0
123 16 0
-123 -16 0
65 81 0
-65 -81 0
10 114 0
-10 -114 0
24 64 0
-24 -64 0
20 128 0
-20 -128 0
115 33 0
-115 -33 0
35 132 0
-35 -132 0
4 68 0
-4 -68 0
107 135 0
-107 -135 0
136 87 0
-136 -87 0
77 117 0
-77 -117 0
134 30 0
-134 -30 0
43 138 0
-43 -138 0
2 104 0
-2 -104 0
2 21 0
-2 -21 0
46 23 0
-46 -23 0
9 97 0
-9 -97 0
120 38 0
-120 -38 0
62 68 0
-62 -68 0
72 46 0
-72 -46 0
86 87 0
-86 -87 0
16 89 0
-16 -89 0
95 43 0
-95 -43 0
139 87 0
-139 -87 0
55 96 0
-55 -96 0
41 89 0
-41 -89 0
